c 1 NormalOutfit
c 2 Ball
c 3 Character
c 4 Frog
c 5 Koala
c 6 YellowSweater
c 7 Jeans
c 8 Balloon
c 9 BrownPant
c 10 BottomClothing
c 11 Costume
c 12 Clothes
c 13 Objects
c 14 TopClothing
c 15 RedSweater
p cnf 15 27
3 0
1 -14 0
1 -10 0
14 -1 0
10 -1 0
3 -12 0
3 -13 0
12 -3 0
10 -7 0
10 -9 0
7 9 -10 0
-7 -9 0
11 -5 0
11 -4 0
5 4 -11 0
-5 -4 0
12 -1 0
12 -11 0
1 11 -12 0
-1 -11 0
13 -2 0
13 -8 0
2 8 -13 0
14 -15 0
14 -6 0
15 6 -14 0
-15 -6 0
